int NumberPatients = 28
int NumberOfRooms = 15
int NumberSurgeons = 20
int NumberOfDays = 6
Duration = [244,260,53,100,32,119,66,72,131,76,32,31,131,32,227,103,66,98,112,85,165,66,40,60,98,39,66,41];
Priority = [0,0,0,0,0,0,0,0,0,0,0,0,0,0,0,0,0,0,0,0,0,0,0,0,0,0,0,0];
Waiting = [164,70,156,158,221,382,80,141,25,70,280,67,79,57,78,67,150,84,56,158,114,127,204,106,86,228,79,204];
Surgeon = [1,1,1,1,3,1,8,5,4,6,3,4,6,1,5,6,2,6,6,7,7,2,4,2,3,3,2,3];
BlockAvailability = [[[0,1],[0,0],[0,1],[0,0],[1,0],[1,0],[1,0],[0,0],[0,0],[0,0],[0,0],[0,1],[0,0],[1,0],[0,0]],[[0,0],[1,1],[0,0],[0,0],[0,1],[0,0],[0,0],[0,0],[0,0],[0,0],[0,0],[0,0],[1,1],[0,0],[0,0]],[[0,0],[1,0],[0,0],[1,1],[0,1],[0,0],[0,1],[0,0],[0,0],[1,0],[1,1],[0,0],[1,0],[0,1],[0,1]],[[0,1],[1,0],[1,0],[1,0],[0,1],[0,0],[0,1],[0,1],[1,0],[0,0],[1,1],[1,0],[0,0],[0,1],[0,1]],[[1,1],[0,0],[0,1],[0,1],[0,0],[0,0],[0,1],[0,0],[0,0],[0,0],[0,0],[0,0],[0,0],[0,1],[0,0]],[[0,0],[0,1],[0,1],[0,1],[1,0],[1,1],[0,0],[0,0],[0,1],[0,0],[0,0],[1,0],[0,0],[0,0],[0,0]]];
SurgeonAvailability = [[[0,0],[1,1],[1,1],[1,0],[0,0],[1,1]],[[0,0],[1,0],[0,1],[1,1],[1,1],[1,1]],[[0,1],[1,1],[1,1],[1,0],[1,1],[0,1]],[[1,1],[1,1],[1,1],[0,0],[1,1],[1,1]],[[1,1],[1,1],[1,0],[1,1],[1,0],[0,1]],[[1,1],[1,0],[1,1],[1,0],[0,1],[0,0]],[[0,1],[1,1],[1,0],[0,1],[1,1],[1,1]],[[1,1],[1,0],[0,1],[0,1],[1,0],[1,1]],[[0,1],[1,0],[1,1],[1,1],[1,1],[1,0]],[[0,1],[1,0],[1,1],[1,1],[1,0],[1,1]],[[1,1],[1,0],[1,1],[0,1],[1,1],[0,1]],[[1,0],[1,1],[1,1],[1,1],[1,1],[1,1]],[[0,1],[1,0],[1,0],[1,1],[0,1],[1,0]],[[0,0],[0,1],[1,1],[1,1],[1,1],[1,0]],[[1,1],[1,0],[1,1],[1,1],[0,1],[1,1]],[[0,1],[1,1],[1,0],[1,0],[1,1],[1,1]],[[1,1],[1,1],[0,1],[1,0],[0,1],[1,1]],[[0,1],[1,1],[0,1],[0,1],[1,0],[0,1]],[[1,1],[0,1],[1,1],[1,1],[1,1],[1,0]],[[1,1],[1,1],[1,1],[1,1],[1,1],[1,1]]];
